benchmarks_CP/INST_64x64/40/inst64x64_40_7.dzn
S=8;
start=[|
45,	-1,	17,	-1,	-1,	-1,	-1,	-1,	60,	-1,	-1,	-1,	35,	-1,	-1,	-1,	39,	33,	-1,	-1,	47,	53,	-1,	41,	-1,	-1,	54,	16,	-1,	-1,	-1,	18,	5,	-1,	-1,	32,	-1,	-1,	6,	-1,	-1,	49,	-1,	-1,	-1,	8,	22,	-1,	-1,	3,	52,	-1,	36,	-1,	-1,	-1,	7,	51,	-1,	38,	25,	19,	-1,	-1|
-1,	-1,	-1,	-1,	-1,	-1,	16,	-1,	17,	-1,	-1,	-1,	12,	44,	-1,	-1,	31,	48,	-1,	45,	61,	-1,	55,	-1,	47,	40,	-1,	14,	-1,	-1,	53,	-1,	-1,	-1,	-1,	-1,	64,	38,	-1,	-1,	13,	46,	57,	-1,	-1,	7,	-1,	24,	29,	-1,	6,	-1,	-1,	33,	-1,	-1,	-1,	-1,	-1,	15,	11,	-1,	-1,	22|
-1,	-1,	37,	-1,	-1,	2,	-1,	-1,	-1,	-1,	-1,	-1,	53,	19,	-1,	26,	-1,	-1,	52,	-1,	20,	-1,	-1,	56,	-1,	-1,	46,	41,	-1,	-1,	-1,	-1,	-1,	28,	-1,	43,	-1,	-1,	-1,	-1,	-1,	-1,	-1,	-1,	-1,	-1,	-1,	15,	-1,	1,	-1,	9,	40,	-1,	-1,	8,	-1,	-1,	-1,	-1,	48,	31,	62,	33|
-1,	40,	50,	5,	30,	61,	55,	-1,	49,	-1,	-1,	-1,	-1,	-1,	41,	9,	-1,	-1,	-1,	-1,	34,	-1,	-1,	60,	-1,	33,	-1,	6,	-1,	59,	-1,	26,	-1,	57,	62,	-1,	58,	-1,	-1,	-1,	-1,	56,	-1,	18,	12,	17,	-1,	63,	-1,	28,	43,	-1,	64,	38,	19,	-1,	54,	-1,	-1,	1,	-1,	4,	-1,	-1|
57,	-1,	-1,	48,	-1,	-1,	33,	18,	-1,	-1,	-1,	-1,	-1,	-1,	-1,	-1,	-1,	-1,	54,	-1,	63,	-1,	17,	-1,	-1,	-1,	-1,	11,	29,	52,	-1,	-1,	-1,	-1,	-1,	-1,	47,	-1,	8,	-1,	-1,	3,	41,	2,	-1,	-1,	-1,	39,	22,	-1,	59,	-1,	35,	15,	-1,	-1,	56,	-1,	-1,	-1,	-1,	-1,	-1,	-1|
-1,	-1,	39,	-1,	-1,	59,	60,	-1,	-1,	29,	-1,	-1,	-1,	5,	-1,	-1,	12,	-1,	49,	-1,	-1,	-1,	27,	-1,	-1,	-1,	8,	-1,	64,	-1,	-1,	24,	-1,	-1,	-1,	-1,	-1,	16,	48,	22,	20,	-1,	-1,	32,	30,	6,	-1,	-1,	-1,	-1,	-1,	-1,	46,	-1,	-1,	-1,	50,	55,	-1,	-1,	41,	-1,	-1,	2|
64,	-1,	-1,	-1,	-1,	-1,	12,	-1,	-1,	-1,	52,	18,	13,	-1,	16,	46,	5,	32,	-1,	62,	26,	21,	-1,	-1,	38,	27,	-1,	-1,	-1,	36,	17,	-1,	54,	2,	33,	-1,	-1,	-1,	-1,	-1,	11,	-1,	-1,	-1,	47,	-1,	-1,	19,	-1,	55,	49,	-1,	-1,	-1,	-1,	63,	29,	-1,	-1,	8,	61,	-1,	23,	-1|
-1,	-1,	63,	-1,	-1,	25,	-1,	-1,	-1,	-1,	55,	22,	-1,	-1,	-1,	2,	50,	-1,	-1,	-1,	6,	1,	59,	-1,	-1,	20,	-1,	-1,	43,	-1,	23,	-1,	-1,	-1,	39,	-1,	-1,	-1,	-1,	-1,	54,	-1,	-1,	10,	-1,	26,	-1,	-1,	-1,	-1,	-1,	31,	-1,	-1,	53,	-1,	17,	-1,	45,	-1,	40,	-1,	-1,	-1|
-1,	28,	1,	58,	-1,	37,	-1,	-1,	-1,	-1,	40,	14,	4,	-1,	-1,	-1,	-1,	-1,	33,	59,	-1,	5,	-1,	9,	45,	46,	30,	-1,	-1,	-1,	-1,	-1,	-1,	56,	42,	39,	-1,	-1,	24,	-1,	-1,	21,	-1,	-1,	25,	38,	-1,	27,	-1,	52,	-1,	-1,	-1,	-1,	-1,	6,	-1,	19,	43,	29,	63,	12,	-1,	61|
-1,	36,	29,	-1,	-1,	21,	45,	-1,	-1,	-1,	-1,	43,	-1,	60,	34,	-1,	-1,	-1,	51,	-1,	27,	-1,	48,	18,	39,	-1,	-1,	33,	1,	-1,	-1,	-1,	44,	-1,	-1,	-1,	-1,	25,	63,	-1,	-1,	-1,	52,	24,	35,	-1,	12,	-1,	31,	-1,	-1,	-1,	-1,	-1,	-1,	32,	-1,	-1,	11,	-1,	-1,	49,	-1,	-1|
24,	-1,	-1,	-1,	33,	-1,	10,	-1,	46,	-1,	-1,	41,	-1,	-1,	-1,	-1,	2,	23,	-1,	20,	-1,	-1,	35,	61,	-1,	-1,	-1,	-1,	-1,	-1,	47,	-1,	58,	48,	12,	-1,	54,	-1,	57,	31,	5,	-1,	51,	-1,	-1,	44,	4,	60,	-1,	-1,	-1,	-1,	-1,	40,	-1,	-1,	-1,	42,	7,	52,	32,	-1,	50,	64|
-1,	62,	-1,	-1,	59,	-1,	40,	38,	45,	-1,	-1,	-1,	-1,	53,	30,	39,	-1,	-1,	55,	50,	-1,	-1,	-1,	-1,	-1,	-1,	-1,	28,	63,	12,	-1,	-1,	-1,	-1,	35,	-1,	20,	-1,	-1,	-1,	-1,	-1,	-1,	9,	-1,	33,	-1,	10,	17,	-1,	-1,	-1,	19,	23,	-1,	5,	36,	-1,	-1,	-1,	-1,	-1,	-1,	-1|
-1,	-1,	-1,	55,	48,	-1,	63,	5,	33,	25,	59,	17,	-1,	-1,	-1,	-1,	-1,	-1,	24,	38,	-1,	-1,	-1,	-1,	52,	-1,	58,	29,	-1,	-1,	20,	-1,	27,	13,	-1,	30,	-1,	-1,	-1,	36,	-1,	41,	8,	-1,	-1,	-1,	-1,	-1,	-1,	34,	-1,	-1,	21,	12,	-1,	-1,	45,	57,	-1,	-1,	-1,	35,	-1,	47|
39,	41,	-1,	42,	12,	27,	2,	60,	52,	38,	-1,	23,	-1,	-1,	-1,	32,	45,	-1,	-1,	-1,	-1,	49,	25,	-1,	51,	-1,	24,	-1,	16,	5,	-1,	40,	-1,	-1,	64,	19,	-1,	33,	-1,	-1,	36,	58,	-1,	-1,	-1,	-1,	-1,	-1,	-1,	-1,	-1,	-1,	-1,	35,	18,	13,	20,	-1,	54,	55,	26,	-1,	-1,	-1|
-1,	-1,	-1,	35,	-1,	18,	-1,	47,	-1,	-1,	28,	-1,	7,	-1,	12,	11,	41,	-1,	-1,	60,	-1,	8,	-1,	4,	-1,	-1,	42,	21,	-1,	-1,	57,	43,	-1,	-1,	-1,	2,	32,	-1,	-1,	-1,	-1,	-1,	20,	54,	-1,	-1,	34,	-1,	-1,	14,	-1,	-1,	3,	63,	-1,	-1,	-1,	-1,	-1,	10,	9,	-1,	40,	-1|
-1,	-1,	32,	-1,	-1,	30,	-1,	26,	50,	15,	-1,	24,	57,	-1,	29,	64,	-1,	42,	-1,	-1,	-1,	58,	6,	53,	44,	-1,	31,	-1,	-1,	-1,	35,	27,	-1,	-1,	41,	23,	-1,	-1,	-1,	55,	-1,	-1,	-1,	47,	-1,	-1,	56,	-1,	59,	-1,	7,	-1,	38,	-1,	-1,	-1,	3,	-1,	-1,	33,	-1,	39,	-1,	-1|
-1,	-1,	15,	13,	-1,	-1,	26,	-1,	-1,	-1,	-1,	38,	8,	-1,	-1,	25,	34,	-1,	-1,	55,	-1,	-1,	-1,	42,	31,	-1,	3,	-1,	-1,	-1,	-1,	-1,	-1,	29,	14,	52,	45,	-1,	18,	39,	-1,	-1,	-1,	30,	-1,	-1,	40,	-1,	4,	-1,	-1,	21,	44,	-1,	-1,	57,	-1,	23,	-1,	-1,	27,	10,	16,	-1|
52,	-1,	9,	30,	-1,	55,	-1,	64,	-1,	-1,	34,	-1,	-1,	-1,	58,	-1,	-1,	-1,	-1,	-1,	-1,	35,	-1,	28,	40,	13,	-1,	-1,	-1,	-1,	-1,	-1,	19,	12,	-1,	-1,	8,	26,	42,	-1,	45,	-1,	-1,	-1,	-1,	-1,	29,	-1,	2,	39,	-1,	11,	16,	3,	-1,	-1,	32,	17,	-1,	63,	50,	-1,	14,	-1|
18,	16,	54,	-1,	-1,	56,	42,	4,	-1,	-1,	-1,	-1,	-1,	-1,	32,	-1,	48,	-1,	-1,	-1,	-1,	29,	50,	-1,	-1,	-1,	-1,	64,	-1,	-1,	30,	-1,	-1,	-1,	27,	-1,	-1,	49,	61,	3,	58,	17,	-1,	-1,	20,	34,	-1,	8,	46,	-1,	-1,	38,	-1,	25,	31,	1,	-1,	24,	40,	-1,	-1,	-1,	7,	-1|
-1,	46,	-1,	27,	45,	-1,	32,	-1,	-1,	7,	57,	-1,	6,	-1,	33,	63,	-1,	-1,	-1,	-1,	-1,	22,	19,	3,	15,	-1,	-1,	43,	39,	14,	5,	34,	-1,	-1,	-1,	-1,	-1,	41,	40,	47,	-1,	-1,	35,	50,	-1,	-1,	-1,	28,	-1,	-1,	-1,	64,	-1,	42,	-1,	-1,	49,	-1,	25,	4,	-1,	-1,	-1,	-1|
-1,	-1,	21,	59,	-1,	22,	44,	-1,	-1,	60,	-1,	19,	-1,	28,	9,	-1,	-1,	-1,	-1,	33,	13,	52,	45,	-1,	11,	-1,	-1,	20,	-1,	50,	-1,	-1,	30,	58,	24,	-1,	53,	-1,	-1,	63,	-1,	-1,	-1,	-1,	32,	-1,	-1,	4,	-1,	-1,	-1,	-1,	23,	62,	-1,	-1,	31,	-1,	-1,	-1,	-1,	-1,	-1,	-1|
58,	-1,	33,	-1,	-1,	-1,	-1,	29,	30,	-1,	22,	-1,	-1,	-1,	-1,	42,	-1,	-1,	37,	49,	5,	12,	2,	31,	62,	-1,	-1,	-1,	-1,	4,	-1,	-1,	60,	38,	-1,	-1,	-1,	-1,	-1,	-1,	3,	-1,	-1,	46,	-1,	27,	-1,	-1,	-1,	-1,	-1,	20,	43,	53,	34,	41,	19,	-1,	-1,	-1,	-1,	-1,	-1,	-1|
6,	-1,	-1,	8,	-1,	19,	-1,	50,	-1,	64,	-1,	40,	-1,	-1,	61,	-1,	-1,	-1,	58,	-1,	24,	-1,	-1,	-1,	32,	-1,	37,	-1,	-1,	10,	-1,	-1,	57,	35,	-1,	44,	4,	-1,	-1,	17,	-1,	53,	12,	14,	13,	21,	-1,	31,	-1,	-1,	-1,	-1,	-1,	18,	-1,	52,	-1,	-1,	-1,	-1,	42,	33,	29,	59|
10,	43,	-1,	-1,	-1,	-1,	-1,	39,	-1,	5,	-1,	-1,	37,	-1,	-1,	-1,	53,	-1,	-1,	-1,	-1,	-1,	-1,	-1,	58,	-1,	29,	-1,	28,	-1,	-1,	-1,	-1,	64,	9,	15,	25,	-1,	55,	-1,	41,	-1,	-1,	1,	-1,	24,	-1,	57,	-1,	-1,	45,	48,	-1,	-1,	13,	-1,	6,	36,	-1,	-1,	12,	-1,	-1,	-1|
-1,	45,	-1,	-1,	64,	-1,	-1,	-1,	-1,	-1,	-1,	9,	-1,	43,	-1,	-1,	19,	-1,	-1,	-1,	-1,	-1,	-1,	22,	33,	-1,	-1,	-1,	-1,	-1,	-1,	-1,	-1,	-1,	-1,	-1,	-1,	-1,	-1,	-1,	48,	60,	49,	-1,	-1,	10,	3,	-1,	-1,	-1,	20,	-1,	-1,	2,	-1,	-1,	41,	-1,	-1,	12,	-1,	25,	-1,	17|
-1,	24,	-1,	-1,	-1,	57,	-1,	-1,	-1,	-1,	-1,	51,	-1,	18,	37,	-1,	1,	-1,	-1,	-1,	-1,	-1,	-1,	30,	-1,	-1,	-1,	5,	-1,	-1,	-1,	-1,	29,	54,	-1,	-1,	-1,	-1,	41,	-1,	23,	-1,	-1,	25,	4,	-1,	36,	33,	-1,	43,	60,	17,	-1,	-1,	-1,	-1,	-1,	38,	63,	-1,	-1,	9,	-1,	-1|
7,	-1,	6,	-1,	-1,	-1,	-1,	15,	-1,	12,	19,	-1,	-1,	-1,	13,	-1,	-1,	-1,	-1,	-1,	-1,	23,	-1,	-1,	-1,	43,	-1,	-1,	-1,	49,	-1,	-1,	2,	-1,	55,	-1,	-1,	5,	59,	-1,	16,	11,	-1,	31,	-1,	-1,	44,	41,	-1,	9,	33,	-1,	-1,	-1,	37,	48,	-1,	-1,	-1,	-1,	-1,	26,	1,	-1|
43,	5,	-1,	17,	-1,	49,	34,	25,	44,	6,	-1,	7,	-1,	-1,	54,	22,	-1,	58,	-1,	10,	-1,	16,	-1,	-1,	53,	-1,	-1,	-1,	23,	-1,	21,	1,	46,	-1,	32,	-1,	9,	48,	-1,	-1,	-1,	-1,	-1,	37,	-1,	35,	-1,	-1,	-1,	-1,	38,	50,	26,	-1,	-1,	40,	59,	47,	-1,	-1,	-1,	-1,	-1,	-1|
-1,	-1,	-1,	-1,	-1,	31,	53,	54,	24,	1,	42,	49,	-1,	-1,	27,	-1,	52,	-1,	28,	-1,	17,	33,	57,	64,	-1,	-1,	-1,	7,	-1,	-1,	61,	41,	-1,	-1,	-1,	47,	-1,	-1,	30,	-1,	-1,	-1,	-1,	-1,	-1,	-1,	-1,	-1,	-1,	16,	36,	23,	11,	29,	-1,	-1,	18,	-1,	-1,	-1,	-1,	-1,	15,	8|
59,	-1,	35,	12,	-1,	63,	-1,	42,	11,	-1,	-1,	-1,	-1,	-1,	-1,	-1,	-1,	60,	-1,	21,	46,	-1,	54,	50,	-1,	-1,	-1,	4,	3,	-1,	48,	-1,	-1,	-1,	-1,	26,	16,	24,	10,	-1,	-1,	22,	-1,	45,	-1,	29,	19,	-1,	-1,	-1,	-1,	-1,	-1,	49,	-1,	-1,	5,	43,	-1,	-1,	36,	-1,	-1,	-1|
-1,	-1,	48,	-1,	61,	-1,	-1,	46,	47,	50,	-1,	-1,	-1,	-1,	59,	-1,	-1,	13,	-1,	-1,	-1,	11,	-1,	-1,	-1,	-1,	17,	-1,	-1,	29,	-1,	64,	-1,	-1,	-1,	-1,	33,	-1,	-1,	19,	12,	52,	-1,	-1,	21,	15,	-1,	-1,	-1,	30,	-1,	-1,	39,	-1,	-1,	-1,	-1,	10,	-1,	-1,	6,	-1,	-1,	23|
33,	13,	-1,	4,	-1,	-1,	-1,	-1,	-1,	-1,	-1,	-1,	46,	-1,	25,	-1,	-1,	62,	-1,	-1,	31,	6,	-1,	5,	-1,	-1,	15,	-1,	60,	45,	12,	10,	-1,	27,	-1,	37,	-1,	-1,	-1,	50,	17,	-1,	7,	-1,	58,	47,	-1,	-1,	3,	-1,	-1,	-1,	18,	-1,	59,	24,	39,	-1,	-1,	22,	-1,	-1,	49,	54|
-1,	10,	-1,	-1,	-1,	-1,	-1,	-1,	19,	-1,	54,	-1,	-1,	-1,	55,	38,	-1,	16,	-1,	13,	49,	-1,	-1,	-1,	-1,	-1,	26,	-1,	-1,	34,	-1,	-1,	17,	-1,	-1,	-1,	57,	1,	-1,	-1,	-1,	-1,	21,	33,	-1,	48,	14,	-1,	9,	-1,	62,	-1,	5,	-1,	-1,	-1,	-1,	-1,	-1,	-1,	-1,	52,	-1,	-1|
-1,	26,	-1,	-1,	-1,	36,	-1,	-1,	-1,	3,	50,	6,	21,	52,	63,	8,	-1,	-1,	46,	-1,	-1,	-1,	53,	-1,	-1,	-1,	5,	-1,	38,	-1,	16,	20,	32,	-1,	-1,	-1,	-1,	56,	-1,	-1,	61,	2,	-1,	-1,	-1,	-1,	-1,	-1,	39,	-1,	-1,	-1,	12,	-1,	-1,	43,	-1,	59,	17,	35,	-1,	-1,	41,	-1|
14,	-1,	12,	-1,	8,	16,	-1,	-1,	-1,	46,	-1,	61,	-1,	59,	-1,	-1,	-1,	-1,	-1,	-1,	2,	-1,	-1,	17,	36,	9,	21,	49,	-1,	-1,	31,	-1,	-1,	-1,	-1,	-1,	-1,	53,	-1,	-1,	-1,	-1,	-1,	-1,	3,	4,	-1,	-1,	40,	-1,	-1,	47,	-1,	-1,	58,	-1,	-1,	-1,	-1,	51,	54,	-1,	27,	-1|
60,	-1,	-1,	46,	55,	58,	-1,	43,	-1,	28,	-1,	33,	-1,	-1,	14,	49,	-1,	5,	-1,	-1,	-1,	-1,	29,	-1,	-1,	53,	-1,	-1,	-1,	-1,	-1,	-1,	-1,	63,	-1,	-1,	41,	-1,	-1,	23,	-1,	30,	1,	15,	40,	-1,	-1,	-1,	26,	-1,	-1,	32,	-1,	51,	24,	-1,	-1,	45,	-1,	19,	-1,	-1,	-1,	-1|
-1,	-1,	-1,	-1,	-1,	62,	1,	34,	-1,	-1,	-1,	-1,	-1,	11,	23,	-1,	63,	51,	50,	-1,	52,	-1,	-1,	10,	4,	41,	-1,	48,	-1,	-1,	39,	-1,	-1,	-1,	-1,	-1,	61,	64,	-1,	24,	-1,	-1,	-1,	60,	-1,	-1,	-1,	6,	42,	-1,	-1,	-1,	17,	55,	-1,	44,	-1,	-1,	-1,	-1,	-1,	-1,	12,	-1|
49,	59,	-1,	-1,	54,	-1,	6,	56,	-1,	35,	-1,	29,	-1,	-1,	20,	-1,	60,	11,	-1,	22,	43,	-1,	14,	-1,	57,	-1,	10,	-1,	-1,	64,	32,	62,	-1,	19,	-1,	-1,	-1,	-1,	-1,	21,	8,	-1,	5,	28,	46,	41,	-1,	-1,	-1,	31,	23,	-1,	-1,	-1,	30,	3,	-1,	-1,	50,	7,	58,	-1,	-1,	44|
-1,	11,	-1,	-1,	-1,	-1,	5,	19,	-1,	42,	-1,	1,	-1,	51,	-1,	-1,	-1,	27,	-1,	28,	-1,	38,	62,	-1,	60,	-1,	-1,	40,	59,	-1,	52,	-1,	-1,	-1,	-1,	-1,	-1,	-1,	46,	54,	-1,	20,	39,	-1,	-1,	-1,	45,	-1,	-1,	-1,	64,	56,	-1,	-1,	49,	53,	-1,	-1,	37,	-1,	-1,	-1,	-1,	57|
-1,	32,	-1,	-1,	-1,	-1,	47,	-1,	25,	-1,	-1,	-1,	-1,	-1,	-1,	-1,	-1,	24,	-1,	-1,	-1,	-1,	-1,	-1,	-1,	-1,	-1,	15,	-1,	6,	-1,	-1,	-1,	49,	-1,	-1,	-1,	-1,	-1,	-1,	26,	-1,	42,	64,	-1,	-1,	63,	-1,	13,	-1,	21,	59,	50,	-1,	-1,	-1,	43,	11,	8,	-1,	-1,	-1,	-1,	-1|
-1,	-1,	59,	-1,	38,	64,	-1,	22,	-1,	-1,	45,	37,	55,	24,	-1,	-1,	-1,	-1,	26,	-1,	-1,	9,	15,	25,	-1,	12,	-1,	2,	-1,	53,	8,	-1,	41,	50,	-1,	-1,	-1,	-1,	14,	-1,	-1,	-1,	-1,	4,	-1,	-1,	20,	-1,	-1,	-1,	-1,	-1,	28,	11,	51,	-1,	48,	-1,	-1,	62,	-1,	-1,	10,	-1|
-1,	33,	-1,	-1,	-1,	-1,	-1,	-1,	-1,	-1,	56,	-1,	-1,	-1,	-1,	-1,	3,	-1,	-1,	30,	12,	-1,	-1,	24,	-1,	-1,	-1,	42,	55,	35,	-1,	50,	6,	-1,	-1,	29,	11,	-1,	9,	-1,	22,	-1,	10,	58,	38,	60,	-1,	54,	14,	-1,	1,	-1,	-1,	-1,	16,	-1,	28,	53,	32,	49,	-1,	-1,	39,	43|
-1,	-1,	46,	-1,	24,	42,	21,	-1,	-1,	-1,	-1,	28,	-1,	8,	-1,	-1,	-1,	-1,	-1,	-1,	55,	-1,	-1,	-1,	54,	1,	-1,	17,	-1,	-1,	-1,	-1,	39,	43,	48,	-1,	-1,	51,	-1,	-1,	52,	-1,	2,	11,	-1,	-1,	-1,	40,	-1,	-1,	3,	19,	-1,	22,	12,	-1,	-1,	33,	-1,	-1,	-1,	37,	-1,	-1|
-1,	-1,	18,	-1,	-1,	-1,	49,	-1,	53,	-1,	-1,	-1,	22,	39,	60,	-1,	-1,	-1,	17,	64,	28,	-1,	63,	-1,	9,	-1,	-1,	-1,	-1,	37,	-1,	-1,	-1,	-1,	-1,	-1,	-1,	42,	-1,	20,	62,	-1,	-1,	-1,	-1,	5,	-1,	44,	54,	-1,	8,	-1,	15,	13,	40,	38,	12,	-1,	-1,	47,	-1,	11,	2,	-1|
-1,	55,	-1,	56,	-1,	41,	-1,	32,	40,	54,	-1,	-1,	17,	-1,	21,	13,	-1,	-1,	60,	-1,	7,	20,	-1,	44,	59,	-1,	-1,	-1,	-1,	-1,	-1,	-1,	47,	-1,	1,	16,	-1,	27,	12,	45,	42,	-1,	-1,	29,	-1,	53,	37,	49,	35,	48,	-1,	25,	-1,	-1,	-1,	-1,	-1,	-1,	-1,	-1,	-1,	-1,	-1,	19|
40,	-1,	-1,	63,	2,	-1,	-1,	10,	-1,	61,	-1,	11,	20,	-1,	19,	5,	-1,	-1,	-1,	-1,	29,	-1,	-1,	-1,	43,	18,	-1,	-1,	13,	-1,	-1,	-1,	-1,	-1,	-1,	-1,	-1,	17,	-1,	-1,	-1,	-1,	-1,	-1,	26,	-1,	-1,	-1,	49,	44,	42,	-1,	-1,	47,	55,	-1,	52,	3,	-1,	54,	-1,	50,	-1,	-1|
44,	58,	-1,	3,	-1,	-1,	-1,	-1,	-1,	-1,	-1,	-1,	-1,	-1,	-1,	14,	-1,	-1,	-1,	-1,	11,	-1,	-1,	-1,	-1,	-1,	52,	-1,	-1,	-1,	-1,	-1,	-1,	-1,	-1,	24,	37,	-1,	-1,	62,	-1,	59,	55,	8,	51,	-1,	-1,	-1,	-1,	-1,	30,	-1,	-1,	-1,	2,	26,	63,	64,	4,	36,	-1,	42,	-1,	15|
-1,	15,	57,	-1,	-1,	43,	19,	-1,	36,	-1,	-1,	-1,	29,	-1,	-1,	-1,	21,	-1,	1,	47,	50,	-1,	-1,	-1,	-1,	-1,	-1,	56,	-1,	-1,	-1,	-1,	63,	-1,	-1,	55,	-1,	-1,	54,	-1,	-1,	24,	17,	12,	34,	3,	-1,	-1,	5,	-1,	31,	-1,	60,	64,	-1,	-1,	44,	41,	-1,	-1,	-1,	51,	22,	-1|
-1,	64,	-1,	-1,	-1,	-1,	-1,	-1,	-1,	45,	-1,	-1,	-1,	-1,	-1,	19,	4,	12,	-1,	53,	33,	-1,	-1,	-1,	-1,	28,	39,	-1,	-1,	-1,	-1,	-1,	42,	40,	31,	-1,	-1,	29,	43,	-1,	6,	55,	-1,	-1,	62,	57,	-1,	-1,	61,	-1,	26,	35,	-1,	-1,	38,	25,	8,	-1,	-1,	32,	-1,	-1,	36,	-1|
28,	49,	14,	18,	-1,	-1,	43,	-1,	-1,	-1,	-1,	-1,	-1,	46,	10,	27,	-1,	35,	-1,	-1,	-1,	-1,	5,	45,	-1,	-1,	16,	-1,	53,	20,	-1,	60,	-1,	4,	19,	57,	22,	58,	-1,	26,	34,	-1,	-1,	-1,	-1,	-1,	-1,	-1,	-1,	-1,	48,	-1,	-1,	37,	11,	30,	21,	-1,	-1,	-1,	-1,	-1,	47,	25|
16,	21,	-1,	29,	-1,	11,	-1,	-1,	-1,	-1,	64,	-1,	-1,	42,	-1,	-1,	-1,	55,	23,	-1,	-1,	-1,	-1,	-1,	-1,	22,	38,	-1,	-1,	-1,	-1,	54,	-1,	-1,	2,	-1,	62,	-1,	32,	-1,	27,	45,	46,	-1,	14,	-1,	8,	30,	28,	-1,	5,	-1,	-1,	-1,	56,	12,	-1,	58,	-1,	34,	1,	-1,	-1,	-1|
-1,	-1,	30,	36,	-1,	17,	-1,	-1,	-1,	47,	7,	21,	-1,	3,	-1,	-1,	62,	-1,	43,	-1,	-1,	-1,	-1,	52,	37,	61,	-1,	-1,	35,	-1,	-1,	-1,	-1,	9,	-1,	-1,	44,	-1,	-1,	48,	-1,	-1,	54,	19,	-1,	22,	15,	-1,	-1,	-1,	-1,	-1,	-1,	-1,	-1,	31,	57,	-1,	-1,	14,	-1,	-1,	13,	18|
-1,	-1,	-1,	44,	22,	-1,	-1,	-1,	-1,	33,	5,	-1,	-1,	37,	8,	-1,	-1,	10,	48,	-1,	-1,	46,	-1,	-1,	-1,	-1,	-1,	-1,	51,	47,	2,	12,	49,	-1,	-1,	18,	60,	35,	-1,	-1,	-1,	16,	-1,	-1,	43,	31,	-1,	26,	34,	50,	39,	-1,	27,	-1,	-1,	14,	53,	52,	-1,	-1,	56,	-1,	-1,	-1|
-1,	-1,	-1,	26,	-1,	32,	-1,	-1,	-1,	57,	16,	62,	-1,	9,	-1,	-1,	49,	20,	-1,	3,	36,	-1,	7,	-1,	-1,	-1,	-1,	46,	40,	43,	-1,	-1,	-1,	-1,	50,	-1,	21,	-1,	-1,	-1,	-1,	-1,	-1,	-1,	5,	-1,	39,	-1,	19,	23,	-1,	-1,	-1,	-1,	17,	-1,	-1,	35,	-1,	-1,	33,	-1,	-1,	-1|
8,	-1,	-1,	-1,	-1,	3,	-1,	-1,	26,	-1,	-1,	39,	-1,	-1,	-1,	-1,	64,	-1,	-1,	-1,	-1,	-1,	-1,	6,	5,	-1,	-1,	58,	-1,	-1,	-1,	11,	34,	36,	-1,	-1,	-1,	-1,	-1,	-1,	-1,	-1,	-1,	51,	-1,	-1,	-1,	61,	-1,	-1,	46,	18,	-1,	-1,	7,	-1,	40,	-1,	-1,	-1,	-1,	-1,	43,	24|
-1,	42,	45,	-1,	56,	-1,	-1,	-1,	-1,	-1,	-1,	32,	-1,	54,	-1,	36,	-1,	57,	21,	-1,	-1,	-1,	24,	-1,	-1,	26,	-1,	25,	-1,	18,	-1,	-1,	-1,	5,	-1,	-1,	14,	47,	1,	13,	-1,	12,	-1,	-1,	49,	11,	-1,	58,	-1,	-1,	-1,	-1,	59,	-1,	3,	-1,	-1,	-1,	6,	20,	-1,	22,	-1,	-1|
2,	-1,	5,	15,	-1,	1,	58,	48,	55,	52,	62,	-1,	-1,	41,	-1,	-1,	13,	-1,	-1,	-1,	21,	-1,	-1,	54,	-1,	-1,	33,	57,	42,	-1,	-1,	-1,	31,	-1,	18,	63,	24,	-1,	-1,	32,	-1,	-1,	53,	-1,	-1,	45,	6,	-1,	37,	-1,	-1,	-1,	-1,	-1,	-1,	-1,	-1,	25,	-1,	64,	59,	36,	-1,	-1|
-1,	-1,	-1,	-1,	-1,	26,	-1,	-1,	48,	23,	-1,	60,	-1,	-1,	36,	-1,	-1,	-1,	-1,	-1,	45,	-1,	-1,	-1,	-1,	-1,	-1,	-1,	-1,	-1,	-1,	13,	-1,	53,	52,	-1,	34,	2,	-1,	-1,	57,	-1,	-1,	7,	-1,	28,	35,	3,	-1,	38,	-1,	-1,	42,	-1,	-1,	55,	58,	22,	-1,	17,	43,	56,	-1,	11|
-1,	44,	-1,	49,	62,	-1,	-1,	-1,	-1,	-1,	38,	46,	-1,	22,	-1,	-1,	59,	56,	36,	31,	41,	-1,	8,	-1,	29,	-1,	-1,	18,	25,	30,	-1,	-1,	45,	-1,	-1,	42,	-1,	-1,	-1,	35,	-1,	-1,	48,	-1,	-1,	64,	61,	-1,	-1,	-1,	51,	-1,	10,	-1,	-1,	-1,	-1,	-1,	-1,	-1,	-1,	15,	-1,	6|
-1,	4,	-1,	23,	-1,	33,	-1,	63,	-1,	-1,	-1,	-1,	19,	-1,	-1,	-1,	-1,	52,	-1,	35,	9,	-1,	47,	-1,	-1,	-1,	44,	-1,	14,	-1,	43,	59,	62,	16,	-1,	-1,	-1,	-1,	-1,	-1,	10,	-1,	-1,	-1,	41,	-1,	-1,	36,	56,	-1,	32,	-1,	8,	-1,	-1,	-1,	-1,	7,	-1,	-1,	-1,	40,	57,	12|
-1,	6,	-1,	45,	-1,	-1,	-1,	-1,	63,	8,	-1,	59,	-1,	61,	-1,	28,	-1,	-1,	5,	24,	-1,	3,	-1,	-1,	-1,	7,	-1,	-1,	17,	-1,	-1,	37,	-1,	-1,	-1,	49,	-1,	22,	25,	56,	-1,	-1,	-1,	-1,	11,	-1,	-1,	29,	-1,	-1,	-1,	14,	2,	-1,	-1,	-1,	4,	-1,	-1,	-1,	-1,	13,	-1,	-1|
-1,	25,	-1,	-1,	-1,	-1,	-1,	-1,	-1,	-1,	-1,	31,	-1,	-1,	-1,	-1,	-1,	-1,	-1,	-1,	53,	-1,	64,	-1,	-1,	58,	-1,	-1,	-1,	-1,	-1,	-1,	-1,	-1,	37,	-1,	7,	-1,	-1,	-1,	32,	-1,	-1,	20,	18,	-1,	17,	-1,	-1,	-1,	-1,	-1,	-1,	5,	21,	-1,	-1,	-1,	41,	2,	-1,	-1,	-1,	35|
-1,	7,	-1,	-1,	-1,	-1,	-1,	-1,	-1,	18,	-1,	-1,	32,	1,	-1,	56,	-1,	15,	-1,	25,	-1,	17,	-1,	-1,	-1,	47,	12,	-1,	6,	-1,	36,	46,	11,	-1,	29,	-1,	-1,	59,	-1,	-1,	4,	-1,	-1,	-1,	8,	-1,	-1,	13,	64,	-1,	-1,	53,	34,	48,	-1,	50,	60,	-1,	33,	-1,	28,	63,	-1,	14|
-1,	-1,	8,	-1,	-1,	-1,	-1,	36,	51,	-1,	11,	-1,	-1,	-1,	-1,	-1,	10,	-1,	-1,	-1,	38,	60,	-1,	7,	-1,	16,	-1,	-1,	-1,	61,	64,	-1,	55,	-1,	-1,	-1,	48,	20,	5,	46,	-1,	-1,	58,	22,	-1,	25,	54,	-1,	27,	-1,	18,	33,	-1,	-1,	-1,	-1,	-1,	-1,	-1,	44,	3,	-1,	-1,	32|];
