sudoku-ls/benchmarks_LEQ/INST_64x64/40/inst64x64_40_7.txt
8
1
45	-1	-1	-1	46	15	-1	-1	-1	-1	-1	-1	35	-1	64	-1	-1	-1	-1	-1	-1	-1	-1	41	-1	-1	54	16	4	28	-1	-1	5	-1	26	-1	55	-1	-1	-1	-1	-1	27	-1	59	8	-1	62	10	-1	-1	-1	-1	-1	-1	58	-1	-1	12	-1	-1	19	30	-1
-1	-1	43	34	-1	52	16	-1	-1	-1	58	10	-1	-1	-1	59	31	-1	-1	45	-1	-1	-1	35	47	40	25	14	-1	-1	-1	-1	-1	37	-1	9	-1	-1	21	42	-1	-1	-1	5	-1	7	28	24	-1	-1	-1	27	32	-1	-1	51	-1	-1	-1	15	11	60	63	22
22	-1	-1	14	-1	-1	13	-1	-1	-1	-1	-1	53	19	47	-1	-1	-1	-1	-1	-1	-1	-1	56	-1	55	46	-1	-1	-1	-1	-1	51	-1	-1	43	-1	18	-1	-1	29	-1	-1	61	-1	50	-1	-1	-1	-1	12	-1	40	30	60	8	-1	-1	-1	-1	48	31	62	-1
-1	-1	-1	-1	30	61	-1	20	49	32	-1	-1	51	-1	41	-1	-1	-1	8	29	34	-1	-1	60	-1	33	48	6	10	59	13	-1	-1	-1	62	27	58	44	-1	25	14	-1	37	18	12	-1	-1	-1	-1	28	-1	45	-1	-1	-1	39	-1	21	36	-1	-1	4	-1	-1
-1	-1	-1	-1	-1	28	33	-1	27	36	37	20	50	-1	7	43	-1	-1	-1	-1	63	24	17	58	-1	-1	1	-1	-1	52	-1	30	-1	46	60	-1	-1	34	-1	4	-1	-1	41	-1	31	55	-1	-1	22	-1	-1	5	-1	15	-1	42	-1	-1	-1	-1	14	32	64	10
-1	-1	39	38	7	59	-1	44	-1	-1	-1	-1	-1	5	-1	15	-1	-1	-1	-1	23	13	-1	-1	19	-1	-1	9	64	-1	37	-1	-1	10	63	31	-1	16	-1	-1	-1	-1	33	-1	30	-1	-1	-1	-1	-1	-1	-1	-1	-1	-1	-1	50	-1	-1	-1	-1	-1	-1	-1
-1	-1	-1	-1	4	-1	-1	-1	-1	-1	-1	18	-1	-1	16	-1	-1	-1	-1	-1	26	21	-1	-1	38	-1	-1	35	56	-1	17	15	-1	2	-1	45	-1	-1	50	-1	11	-1	-1	42	-1	43	53	19	-1	-1	-1	37	-1	41	20	63	-1	-1	-1	8	-1	-1	23	-1
-1	-1	-1	32	-1	-1	56	-1	8	-1	-1	-1	38	-1	-1	-1	-1	-1	18	-1	-1	1	59	-1	-1	20	7	-1	-1	51	-1	-1	-1	-1	39	-1	-1	12	29	52	-1	36	9	-1	60	26	-1	-1	-1	62	13	-1	-1	-1	53	4	-1	28	-1	-1	-1	-1	37	5
31	-1	-1	58	34	-1	-1	-1	-1	-1	40	-1	4	35	48	-1	47	36	33	59	-1	5	-1	9	45	-1	-1	53	22	-1	-1	-1	-1	56	42	39	17	10	24	60	64	-1	11	3	-1	-1	18	27	-1	52	50	26	49	-1	-1	-1	23	19	43	-1	-1	12	8	61
56	-1	29	-1	-1	-1	45	-1	-1	-1	-1	43	-1	-1	34	-1	26	-1	-1	-1	-1	40	-1	-1	-1	-1	-1	-1	1	9	-1	19	44	-1	-1	-1	5	-1	-1	-1	53	28	-1	-1	35	-1	-1	7	31	-1	-1	16	55	-1	-1	32	22	-1	-1	41	-1	-1	-1	30
24	14	53	-1	33	8	10	13	-1	-1	1	41	63	-1	18	21	2	-1	-1	-1	37	-1	-1	-1	26	-1	62	-1	-1	-1	-1	-1	-1	48	12	-1	-1	-1	-1	-1	-1	-1	-1	-1	-1	44	-1	-1	36	56	-1	43	45	-1	39	-1	-1	-1	7	52	-1	16	-1	-1
25	-1	-1	43	59	-1	-1	-1	-1	-1	8	47	-1	53	30	-1	-1	-1	-1	-1	-1	-1	-1	1	-1	-1	14	-1	-1	-1	54	-1	-1	52	35	51	-1	-1	-1	-1	-1	-1	-1	-1	57	33	-1	-1	-1	-1	41	-1	-1	-1	42	-1	-1	-1	-1	6	13	58	-1	-1
3	61	16	55	48	-1	63	-1	-1	25	-1	17	-1	26	51	62	-1	-1	24	-1	-1	-1	56	43	-1	10	58	29	-1	-1	-1	-1	-1	-1	-1	-1	6	50	49	-1	-1	-1	8	-1	-1	-1	1	23	-1	34	37	-1	21	-1	22	54	45	57	53	-1	-1	35	-1	47
-1	-1	-1	-1	12	27	-1	-1	52	-1	-1	23	-1	56	-1	32	45	-1	-1	-1	22	-1	-1	21	51	-1	24	-1	-1	5	-1	-1	4	-1	-1	-1	-1	-1	47	-1	-1	-1	-1	6	15	-1	43	17	-1	46	-1	-1	30	35	-1	13	20	-1	54	55	-1	-1	-1	48
-1	-1	-1	-1	-1	-1	-1	-1	-1	-1	-1	-1	7	-1	-1	-1	41	-1	-1	-1	62	8	-1	-1	-1	-1	-1	-1	36	-1	-1	-1	-1	-1	15	-1	-1	37	-1	-1	-1	-1	20	-1	55	13	-1	-1	-1	-1	53	29	3	63	61	33	-1	31	-1	-1	-1	-1	-1	-1
54	17	-1	11	51	30	-1	26	50	-1	-1	-1	-1	-1	-1	64	28	-1	-1	52	-1	-1	6	-1	44	-1	-1	-1	49	-1	-1	27	-1	-1	41	-1	43	-1	45	55	-1	63	-1	47	-1	-1	56	46	59	-1	-1	1	38	-1	8	-1	3	-1	-1	33	62	-1	-1	34
-1	-1	15	13	1	-1	-1	62	-1	-1	24	38	8	17	11	25	34	41	-1	55	-1	-1	-1	-1	-1	59	-1	-1	-1	-1	-1	7	-1	29	-1	52	45	-1	18	-1	33	9	47	-1	48	19	-1	5	-1	-1	-1	-1	44	60	32	-1	-1	-1	58	-1	-1	-1	-1	-1
-1	-1	-1	30	60	-1	24	-1	-1	-1	-1	48	-1	-1	-1	41	-1	-1	-1	-1	10	-1	-1	-1	-1	-1	-1	-1	-1	-1	46	53	-1	-1	-1	-1	-1	26	-1	-1	-1	37	36	-1	-1	49	29	-1	2	-1	56	-1	16	3	-1	61	-1	-1	-1	63	-1	43	14	20
18	-1	-1	37	41	56	-1	4	12	-1	-1	44	-1	-1	32	-1	-1	21	-1	-1	-1	-1	50	-1	2	-1	-1	-1	-1	-1	-1	9	22	59	27	11	-1	49	-1	-1	-1	-1	62	-1	20	-1	-1	-1	46	-1	-1	38	33	25	31	-1	-1	-1	-1	-1	-1	55	-1	-1
12	46	-1	27	-1	20	32	-1	-1	-1	-1	-1	6	29	-1	63	-1	-1	-1	-1	-1	22	-1	-1	-1	-1	56	43	-1	14	-1	-1	21	-1	-1	-1	-1	41	-1	-1	55	-1	-1	-1	-1	-1	23	28	-1	37	54	-1	-1	42	-1	59	-1	-1	25	-1	53	-1	-1	-1
-1	-1	-1	-1	-1	-1	44	-1	-1	-1	43	-1	-1	-1	-1	-1	17	14	-1	-1	-1	52	-1	-1	-1	-1	-1	-1	61	-1	-1	-1	-1	58	24	-1	-1	-1	-1	-1	25	10	-1	16	32	18	26	-1	12	-1	35	40	23	62	-1	49	-1	48	64	56	47	8	54	41
58	57	-1	-1	-1	47	-1	-1	30	-1	-1	54	59	-1	50	-1	-1	1	-1	49	-1	12	-1	31	62	35	18	-1	8	4	-1	-1	-1	-1	-1	-1	-1	-1	-1	-1	3	-1	-1	-1	-1	27	-1	56	-1	-1	17	20	-1	-1	-1	-1	-1	9	15	61	-1	28	-1	-1
6	48	28	-1	-1	19	-1	50	-1	64	47	-1	-1	-1	61	-1	-1	38	-1	54	24	27	60	-1	-1	-1	37	26	-1	10	45	16	-1	-1	-1	-1	-1	62	-1	-1	-1	53	12	-1	-1	-1	-1	-1	30	7	63	-1	-1	-1	5	-1	34	-1	-1	-1	-1	-1	-1	-1
-1	43	49	-1	-1	-1	7	-1	-1	-1	-1	35	-1	16	52	4	-1	-1	40	32	8	-1	26	62	-1	60	29	-1	28	33	27	-1	-1	64	9	-1	25	23	-1	2	-1	-1	59	1	61	-1	-1	-1	-1	22	-1	48	51	-1	-1	47	-1	-1	38	-1	12	-1	-1	-1
-1	-1	-1	-1	-1	-1	-1	-1	32	-1	61	9	-1	43	-1	23	19	-1	-1	37	59	55	-1	-1	33	-1	-1	8	-1	-1	-1	42	15	-1	-1	36	31	-1	-1	-1	-1	-1	-1	-1	54	10	3	53	1	5	20	13	-1	2	63	-1	41	-1	52	12	-1	25	-1	-1
55	-1	-1	-1	-1	-1	62	14	-1	-1	-1	-1	10	-1	-1	-1	-1	-1	-1	-1	15	-1	42	-1	34	-1	-1	-1	20	-1	59	-1	-1	-1	-1	-1	12	-1	-1	49	23	-1	13	-1	-1	40	-1	33	53	43	-1	17	-1	-1	64	22	-1	38	63	50	-1	9	-1	-1
7	-1	-1	-1	-1	-1	-1	15	-1	-1	19	-1	-1	45	-1	-1	-1	-1	-1	-1	3	23	-1	-1	-1	-1	-1	-1	-1	49	22	47	-1	17	-1	-1	-1	5	-1	64	-1	-1	-1	-1	24	46	-1	41	-1	9	33	-1	-1	-1	37	-1	42	-1	-1	57	4	-1	-1	-1
-1	-1	-1	17	19	-1	34	-1	44	6	29	-1	3	63	-1	-1	-1	-1	-1	-1	4	16	-1	-1	-1	-1	11	30	23	-1	-1	1	46	18	-1	60	-1	48	62	-1	2	-1	61	-1	-1	-1	-1	42	-1	12	38	50	-1	-1	-1	-1	-1	-1	-1	-1	64	-1	-1	-1
-1	56	22	-1	-1	31	-1	-1	24	1	-1	-1	62	38	-1	-1	52	-1	28	12	-1	-1	-1	-1	-1	-1	2	7	-1	55	-1	-1	-1	44	45	-1	-1	-1	-1	51	-1	-1	-1	-1	50	-1	5	-1	58	16	-1	23	-1	-1	-1	-1	18	37	-1	-1	60	21	15	8
-1	-1	-1	-1	44	-1	-1	-1	-1	-1	-1	-1	-1	-1	-1	-1	20	-1	9	-1	-1	-1	-1	-1	-1	-1	57	-1	3	40	-1	-1	52	-1	23	-1	16	-1	-1	-1	-1	-1	-1	-1	-1	29	-1	-1	62	-1	-1	-1	-1	49	-1	56	-1	-1	30	53	-1	-1	-1	-1
38	18	48	-1	-1	-1	-1	46	-1	-1	-1	5	36	-1	-1	57	-1	-1	53	56	-1	11	-1	-1	27	-1	17	-1	-1	29	9	64	1	-1	25	22	33	8	-1	-1	-1	-1	-1	-1	-1	15	-1	32	-1	30	-1	51	-1	-1	-1	-1	-1	-1	16	-1	-1	7	-1	23
-1	-1	52	-1	29	23	-1	1	-1	-1	-1	30	46	-1	-1	-1	61	-1	-1	-1	-1	6	-1	-1	-1	-1	15	-1	-1	-1	-1	10	53	-1	-1	-1	-1	-1	11	-1	-1	57	7	-1	58	-1	9	-1	3	19	-1	-1	18	14	-1	-1	39	-1	-1	22	34	-1	49	-1
4	10	-1	53	63	45	-1	-1	19	-1	54	-1	60	-1	55	-1	58	-1	61	13	-1	36	-1	37	28	50	-1	24	47	-1	-1	-1	17	-1	-1	59	-1	-1	-1	-1	-1	-1	-1	-1	-1	48	-1	-1	9	-1	62	6	5	46	-1	20	-1	32	23	-1	22	52	-1	-1
13	26	-1	-1	-1	-1	-1	7	-1	-1	-1	6	-1	-1	-1	-1	-1	47	46	-1	25	44	53	55	-1	-1	-1	-1	-1	-1	-1	-1	-1	-1	30	-1	-1	-1	60	28	61	-1	-1	-1	-1	58	-1	37	39	-1	-1	22	-1	27	-1	43	-1	59	-1	-1	24	34	-1	-1
-1	39	-1	64	-1	-1	-1	-1	43	-1	32	61	-1	-1	57	-1	23	-1	-1	-1	2	18	-1	17	-1	9	21	-1	-1	11	-1	-1	37	6	-1	-1	42	-1	-1	-1	-1	-1	44	13	3	4	-1	52	40	-1	-1	-1	-1	7	-1	19	-1	-1	-1	-1	-1	-1	-1	-1
60	2	25	-1	-1	58	20	-1	-1	28	39	-1	56	27	-1	49	6	-1	-1	-1	-1	-1	29	-1	-1	-1	-1	12	44	8	3	22	38	-1	-1	35	-1	-1	52	23	-1	-1	1	-1	40	-1	-1	-1	-1	-1	-1	32	4	-1	-1	-1	-1	-1	-1	-1	21	-1	-1	-1
-1	-1	-1	-1	-1	-1	1	-1	-1	-1	18	36	-1	-1	23	-1	63	51	-1	-1	-1	-1	-1	10	4	41	-1	48	33	46	39	25	-1	-1	20	58	-1	-1	-1	-1	56	-1	-1	60	-1	16	32	-1	-1	8	29	-1	-1	-1	-1	-1	-1	-1	-1	-1	31	14	-1	49
-1	59	-1	-1	-1	48	-1	-1	37	-1	-1	-1	-1	2	20	-1	-1	-1	-1	-1	43	-1	14	12	-1	-1	10	-1	-1	-1	32	62	33	19	-1	-1	-1	15	13	-1	-1	-1	5	-1	46	-1	-1	47	-1	-1	-1	52	-1	-1	-1	-1	1	39	-1	-1	58	-1	55	-1
21	11	-1	24	17	-1	-1	-1	22	42	13	-1	-1	-1	-1	47	-1	-1	31	-1	-1	38	62	-1	60	63	-1	-1	59	-1	-1	-1	-1	-1	-1	-1	-1	55	-1	54	7	20	39	-1	-1	-1	45	9	-1	10	64	56	-1	61	-1	53	33	-1	-1	18	16	-1	6	-1
-1	-1	23	-1	28	-1	47	52	-1	-1	48	16	58	-1	-1	-1	-1	-1	3	-1	-1	-1	-1	-1	18	-1	55	15	-1	-1	19	-1	9	49	-1	5	-1	-1	-1	14	-1	62	-1	-1	17	12	63	-1	-1	57	21	59	50	45	-1	-1	-1	11	-1	-1	-1	-1	20	36
-1	-1	-1	54	-1	64	-1	-1	42	44	45	37	-1	24	1	-1	35	43	-1	23	-1	-1	15	25	46	-1	-1	-1	-1	-1	-1	36	-1	-1	40	61	49	-1	14	-1	-1	-1	-1	-1	63	-1	20	21	33	32	-1	-1	28	11	51	-1	-1	-1	-1	62	-1	6	10	16
20	-1	31	-1	-1	5	17	-1	57	-1	-1	-1	-1	-1	-1	-1	-1	59	-1	30	-1	2	36	-1	7	64	-1	-1	-1	-1	-1	-1	6	-1	-1	29	-1	-1	-1	-1	22	61	-1	-1	-1	-1	-1	-1	14	-1	1	-1	-1	-1	16	-1	28	53	-1	-1	-1	-1	39	-1
23	50	46	6	-1	-1	-1	9	-1	-1	-1	-1	-1	8	-1	18	-1	53	-1	-1	-1	10	31	-1	54	1	61	-1	5	41	-1	-1	-1	-1	-1	-1	-1	-1	-1	-1	-1	-1	-1	-1	-1	-1	-1	-1	-1	-1	-1	-1	-1	22	12	-1	-1	-1	-1	60	30	37	25	-1
26	-1	-1	-1	14	4	-1	-1	-1	-1	-1	52	22	39	-1	16	-1	-1	-1	-1	28	-1	-1	48	-1	-1	19	10	-1	-1	-1	-1	-1	-1	21	56	-1	42	-1	20	-1	-1	-1	-1	45	5	-1	-1	54	-1	-1	-1	-1	-1	-1	38	12	29	34	-1	-1	-1	2	-1
51	55	-1	-1	-1	41	28	-1	-1	-1	10	-1	-1	-1	-1	-1	57	-1	60	-1	-1	-1	52	44	59	15	22	3	-1	-1	-1	33	47	8	-1	-1	-1	-1	12	-1	42	-1	23	-1	64	53	-1	-1	-1	48	-1	-1	-1	-1	-1	-1	61	26	-1	24	-1	46	38	-1
40	-1	-1	-1	2	35	-1	10	38	-1	-1	-1	20	32	19	-1	14	37	45	-1	-1	-1	39	-1	-1	18	23	62	-1	-1	60	4	-1	22	53	-1	46	-1	-1	33	-1	7	25	41	-1	-1	-1	16	49	-1	-1	24	-1	-1	-1	-1	52	3	59	54	57	-1	58	1
-1	-1	47	-1	13	12	61	-1	7	9	31	-1	41	-1	43	-1	33	-1	-1	40	-1	-1	-1	-1	-1	-1	-1	-1	-1	-1	-1	45	18	60	-1	24	-1	-1	35	-1	28	-1	-1	-1	51	-1	46	48	-1	20	30	-1	53	-1	2	-1	-1	64	-1	-1	-1	42	-1	-1
-1	15	-1	-1	-1	-1	-1	8	36	2	49	26	29	-1	-1	33	21	18	-1	-1	50	42	-1	-1	-1	-1	20	-1	11	-1	-1	-1	-1	32	-1	55	-1	4	-1	-1	-1	-1	-1	12	34	-1	13	-1	-1	-1	31	-1	-1	-1	-1	-1	-1	41	35	-1	7	51	-1	-1
-1	-1	-1	-1	-1	7	52	-1	58	-1	17	-1	48	13	-1	-1	4	-1	-1	-1	33	47	-1	-1	-1	28	-1	-1	-1	-1	-1	14	-1	-1	-1	-1	30	29	43	16	-1	55	-1	-1	62	57	-1	-1	61	-1	-1	35	22	24	38	-1	8	-1	-1	-1	-1	5	-1	-1
28	49	-1	18	-1	-1	-1	6	59	24	51	-1	44	-1	10	-1	-1	-1	-1	61	56	-1	-1	-1	-1	-1	-1	-1	53	20	-1	60	64	-1	-1	-1	22	-1	33	-1	-1	-1	3	-1	9	36	-1	38	-1	42	-1	-1	-1	-1	11	-1	21	-1	31	-1	23	-1	-1	25
-1	-1	19	29	57	11	39	33	-1	20	64	-1	52	-1	-1	31	40	-1	23	-1	-1	-1	18	-1	-1	-1	38	-1	-1	-1	-1	54	-1	-1	2	-1	62	-1	32	-1	-1	-1	-1	48	-1	-1	-1	-1	28	49	-1	-1	47	-1	-1	12	-1	-1	-1	-1	1	17	51	26
5	-1	-1	36	10	17	25	55	-1	-1	7	-1	-1	-1	-1	34	62	-1	-1	-1	51	-1	28	52	-1	-1	-1	-1	35	32	-1	-1	-1	9	11	-1	44	-1	53	48	-1	42	-1	19	-1	22	-1	50	-1	-1	4	-1	20	6	33	-1	57	-1	27	14	38	-1	13	18
63	-1	-1	44	22	-1	-1	59	-1	-1	5	55	-1	-1	8	6	25	10	-1	-1	1	-1	30	-1	-1	-1	-1	-1	51	47	-1	-1	-1	-1	17	-1	-1	-1	-1	41	21	-1	28	-1	-1	31	64	-1	-1	-1	-1	-1	27	-1	-1	-1	53	52	3	-1	56	-1	-1	-1
48	47	24	-1	15	-1	31	-1	61	57	16	-1	18	9	38	-1	-1	-1	-1	-1	36	-1	7	59	30	-1	-1	-1	-1	43	-1	63	-1	-1	-1	6	21	45	-1	-1	-1	13	-1	-1	-1	-1	39	25	-1	-1	-1	8	-1	-1	-1	2	-1	35	44	-1	33	64	28	-1
8	20	60	-1	-1	3	35	-1	-1	-1	2	-1	-1	14	-1	-1	-1	-1	-1	42	-1	31	9	-1	-1	-1	-1	58	62	-1	10	-1	34	36	-1	-1	52	63	-1	-1	-1	-1	-1	51	-1	32	-1	61	-1	-1	-1	-1	1	-1	-1	-1	-1	-1	55	48	37	-1	43	-1
-1	-1	-1	-1	-1	-1	46	-1	-1	-1	-1	32	-1	-1	-1	-1	-1	-1	-1	17	39	-1	-1	-1	55	-1	-1	-1	-1	-1	33	-1	-1	-1	7	-1	-1	-1	-1	-1	35	-1	-1	-1	-1	-1	41	-1	-1	53	40	-1	59	-1	3	-1	62	-1	6	-1	-1	-1	-1	-1
-1	22	-1	-1	-1	-1	58	48	-1	-1	62	12	9	-1	-1	10	-1	61	4	-1	21	28	-1	-1	-1	-1	-1	57	-1	-1	11	8	-1	-1	18	63	-1	-1	-1	32	-1	51	-1	-1	-1	-1	-1	43	-1	-1	-1	-1	-1	-1	-1	-1	30	-1	-1	64	-1	-1	-1	-1
-1	31	64	-1	21	-1	-1	-1	-1	23	33	-1	-1	-1	36	-1	46	40	32	-1	-1	-1	1	-1	-1	-1	63	-1	9	-1	-1	-1	8	-1	-1	50	-1	-1	-1	12	57	-1	-1	-1	-1	-1	35	-1	6	-1	-1	-1	42	-1	44	-1	58	-1	61	-1	-1	-1	-1	11
-1	44	-1	-1	-1	50	37	40	-1	58	-1	46	24	22	-1	-1	59	-1	36	-1	-1	43	-1	-1	-1	-1	32	-1	-1	30	-1	-1	-1	21	47	-1	-1	-1	-1	-1	-1	-1	-1	-1	33	-1	61	1	-1	60	-1	-1	-1	39	57	11	16	54	-1	9	52	-1	-1	-1
-1	-1	3	23	18	33	38	-1	20	37	-1	-1	19	25	6	-1	-1	-1	11	35	-1	-1	-1	-1	24	2	44	-1	-1	15	-1	59	62	-1	58	-1	-1	-1	-1	61	-1	-1	-1	-1	41	42	-1	-1	-1	-1	-1	-1	-1	-1	26	-1	55	-1	-1	-1	45	-1	-1	12
-1	6	-1	-1	-1	-1	54	-1	-1	8	-1	59	-1	61	39	-1	-1	50	-1	-1	-1	-1	-1	23	35	7	-1	55	-1	-1	40	-1	-1	-1	-1	-1	-1	-1	-1	-1	46	44	-1	-1	-1	52	-1	29	-1	-1	19	14	2	1	-1	15	4	-1	-1	-1	20	-1	-1	-1
46	-1	-1	-1	-1	-1	-1	11	4	-1	44	31	-1	15	3	54	-1	-1	29	-1	-1	-1	-1	-1	-1	-1	45	-1	-1	-1	28	-1	-1	-1	-1	-1	7	-1	-1	-1	-1	-1	38	20	18	59	-1	12	-1	-1	-1	-1	61	-1	-1	-1	51	-1	-1	-1	10	23	42	35
42	-1	55	52	-1	-1	57	-1	-1	18	-1	-1	-1	-1	-1	56	37	-1	19	-1	44	-1	-1	-1	20	-1	-1	-1	-1	-1	-1	-1	11	-1	-1	-1	-1	59	3	-1	4	-1	26	-1	8	-1	-1	-1	64	40	-1	-1	34	-1	-1	-1	-1	-1	-1	21	-1	63	24	-1
53	-1	-1	28	-1	24	-1	-1	51	17	11	13	-1	57	-1	35	-1	49	-1	-1	38	-1	-1	-1	41	-1	-1	-1	-1	61	64	-1	55	15	6	-1	-1	20	-1	46	19	-1	-1	-1	-1	25	54	-1	-1	4	-1	-1	-1	-1	-1	23	-1	-1	-1	44	-1	-1	31	32
64 
23 58 20 37
17 57 10 51
17 27 49 30
25 35 30 28
55 25 61 19
24 57 59 64
9 33 43 53
40 59 2 2
21 15 64 7
58 25 20 55
43 44 26 63
53 32 56 42
55 30 1 38
59 42 58 13
24 36 28 55
27 41 51 1
63 22 12 49
2 59 58 20
37 20 21 12
3 21 49 48
21 3 9 42
47 18 61 38
52 32 2 33
53 34 32 56
16 50 9 45
36 49 61 37
29 15 28 19
60 56 43 12
25 61 21 55
50 56 62 38
18 13 44 64
42 59 43 42
13 9 14 38
64 27 60 43
63 5 38 10
45 56 27 7
44 30 48 1
30 32 27 19
12 16 40 22
15 63 27 6
33 10 22 56
4 17 11 58
52 19 62 49
1 41 25 23
51 42 25 2
39 39 10 58
20 40 6 62
50 51 39 33
7 51 12 41
17 33 20 44
63 6 39 14
58 35 22 64
41 30 28 25
19 3 40 29
46 55 59 44
43 46 45 4
55 54 4 34
42 44 14 42
31 15 43 50
44 15 49 58
53 63 10 46
20 58 36 59
56 52 14 18
29 24 46 36
